letting maxWeight=123456
letting values =  [ 450,  470,  410,  420,  470,  440,  420,  440,  460,  490,  390,  540,  460,  470,  480,  430,  450,  480,  450,  420,  420,  440,  460,  490,  390,  540,  460,  470,  480,  430]
letting weights = [7890, 6190, 7150, 6140, 7870, 6200, 7180, 6190, 7620, 8930, 9150, 7150, 5740, 6140, 3930, 2200, 3810, 2150, 3130, 3530, 6190, 7150, 6140, 7870, 6200, 7180, 6190, 7620, 8930, 9150]
